15 65 70 9 81 28 10 27 48 18 63 47 31 49 25 
57 44 98 1 74 50 
82 5 96 36 64 20 71 69 62 32 68 54 39 22 53 73 8 60 33 94 59 85 16 95 24 55 21 26 13 40 97 77 
92 45 23 78 52 83 38 43 67 76 80 29 87 75 91 19 30 35 72 86 6 3 
89 66 7 93 46 61 2 41 11 88 99 56 34 79 84 17 4 12 51 90 42 58 37 100 14 

